n=40;
demand=2;
horizon=40;
est=[9,16,18,6,36,27,28,11,33,17,0,10,3,32,19,30,8,26,1,11,12,7,15,24,0,24,21,39,3,14,36,27,8,20,2,38,22,15,16,8];
processing_time=[28,11,10,32,3,8,12,15,1,15,36,9,23,6,14,2,28,12,11,2,23,26,3,8,6,12,4,1,29,5,2,12,17,19,27,1,14,22,19,26];
lct=[38,35,29,39,39,37,40,33,40,33,36,29,33,39,35,34,39,38,14,38,38,37,27,35,37,36,25,40,32,26,39,40,28,40,31,40,36,40,40,37];
